Route #1: 45 14 39 50 24 42 5 59 60 25 31 19 23 3 46
Route #2: 8 15 20 12 2 55 32 26 10 61 43 22 4 48 28 40
Route #3: 37 38 47 17
Route #4: 1
Route #5: 9 30 44 7 33 51 34 27 56 36 18
Route #6: 53 13 54 57 49 35 6
Route #7: 11 62 58 41 52 21
Route #8: 16 29
cost 1866.7938186913696
